PROBLEM NAME: 	p654-TTP
KNAPSACK DATA TYPE: bounded strongly corr
DIMENSION:	654
NUMBER OF ITEMS: 	653
CAPACITY OF KNAPSACK: 	57668
MIN SPEED: 	0.1
MAX SPEED: 	1
RENTING RATIO: 	0.75
EDGE_WEIGHT_TYPE:	CEIL_2D
NODE_COORD_SECTION	(INDEX, X, Y): 
1	1.24500e+03	1.25500e+03
2	1.80750e+03	2.19250e+03
3	1.82250e+03	2.20750e+03
4	1.86750e+03	2.73250e+03
5	2.37750e+03	2.61250e+03
6	2.46750e+03	3.58750e+03
7	2.49750e+03	3.58750e+03
8	2.57250e+03	3.67750e+03
9	2.64750e+03	3.78250e+03
10	2.66250e+03	3.97750e+03
11	3.30750e+03	3.37750e+03
12	3.33750e+03	3.34750e+03
13	3.32250e+03	3.63250e+03
14	3.71250e+03	3.67750e+03
15	4.26750e+03	2.37250e+03
16	5.65500e+03	1.25500e+03
17	4.85250e+03	2.50750e+03
18	4.88250e+03	3.49750e+03
19	4.85250e+03	3.61750e+03
20	4.40250e+03	4.06750e+03
21	4.41750e+03	4.05250e+03
22	4.23750e+03	4.02250e+03
23	4.26750e+03	4.00750e+03
24	4.40250e+03	4.00750e+03
25	4.35750e+03	3.97750e+03
26	4.41750e+03	3.96250e+03
27	4.35750e+03	3.94750e+03
28	4.31250e+03	3.93250e+03
29	4.25250e+03	3.93250e+03
30	4.22250e+03	3.90250e+03
31	4.32750e+03	3.88750e+03
32	4.29750e+03	3.87250e+03
33	4.29750e+03	3.84250e+03
34	4.32750e+03	3.82750e+03
35	4.20750e+03	3.82750e+03
36	4.22250e+03	3.76750e+03
37	4.25250e+03	3.76750e+03
38	4.35750e+03	3.75250e+03
39	4.35750e+03	3.72250e+03
40	4.23750e+03	3.72250e+03
41	4.26750e+03	3.70750e+03
42	4.31250e+03	3.69250e+03
43	4.25250e+03	3.66250e+03
44	4.31250e+03	3.64750e+03
45	4.29750e+03	3.63250e+03
46	4.34250e+03	3.61750e+03
47	4.22250e+03	3.60250e+03
48	4.32750e+03	3.58750e+03
49	4.32750e+03	3.52750e+03
50	4.38750e+03	3.46750e+03
51	4.28250e+03	3.46750e+03
52	4.20750e+03	3.46750e+03
53	4.34250e+03	3.43750e+03
54	4.32750e+03	3.42250e+03
55	4.32750e+03	3.39250e+03
56	4.34250e+03	3.37750e+03
57	4.23750e+03	3.36250e+03
58	4.38750e+03	3.31750e+03
59	4.31250e+03	3.27250e+03
60	4.22250e+03	3.25750e+03
61	4.20750e+03	3.22750e+03
62	3.69750e+03	3.48250e+03
63	2.69250e+03	4.66750e+03
64	2.64750e+03	4.68250e+03
65	3.06750e+03	4.92250e+03
66	3.12750e+03	5.04250e+03
67	3.08250e+03	5.08750e+03
68	3.00750e+03	5.11750e+03
69	3.14250e+03	5.22250e+03
70	2.70750e+03	5.11750e+03
71	2.69250e+03	5.05750e+03
72	2.57250e+03	5.02750e+03
73	2.37750e+03	5.13250e+03
74	1.47750e+03	4.02250e+03
75	1.23750e+03	3.99250e+03
76	1.35750e+03	3.96250e+03
77	1.41750e+03	3.93250e+03
78	1.25250e+03	3.93250e+03
79	1.31250e+03	3.90250e+03
80	1.28250e+03	3.82750e+03
81	1.37250e+03	3.82750e+03
82	1.50750e+03	3.82750e+03
83	1.26750e+03	3.81250e+03
84	1.28250e+03	3.79750e+03
85	1.26750e+03	3.76750e+03
86	1.43250e+03	3.76750e+03
87	1.37250e+03	3.73750e+03
88	1.32750e+03	3.72250e+03
89	1.26750e+03	3.70750e+03
90	1.49250e+03	3.66250e+03
91	1.26750e+03	3.63250e+03
92	1.35750e+03	3.60250e+03
93	1.50750e+03	3.58750e+03
94	1.26750e+03	3.57250e+03
95	1.38750e+03	3.52750e+03
96	1.34250e+03	3.51250e+03
97	1.32750e+03	3.45250e+03
98	1.34250e+03	3.37750e+03
99	1.32750e+03	3.31750e+03
100	1.43250e+03	3.27250e+03
101	1.46250e+03	3.25750e+03
102	1.40250e+03	3.22750e+03
103	1.80750e+03	4.71250e+03
104	1.82250e+03	4.72750e+03
105	1.86750e+03	5.25250e+03
106	1.24500e+03	5.84500e+03
107	1.04250e+03	2.46250e+03
108	1.05750e+03	2.46250e+03
109	1.07250e+03	2.46250e+03
110	1.08750e+03	2.46250e+03
111	1.04250e+03	2.47750e+03
112	1.05750e+03	2.47750e+03
113	1.07250e+03	2.47750e+03
114	1.08750e+03	2.47750e+03
115	1.04250e+03	2.49250e+03
116	1.05750e+03	2.49250e+03
117	1.07250e+03	2.49250e+03
118	1.08750e+03	2.49250e+03
119	1.04250e+03	2.50750e+03
120	1.05750e+03	2.50750e+03
121	1.07250e+03	2.50750e+03
122	1.08750e+03	2.50750e+03
123	1.04250e+03	2.52250e+03
124	1.05750e+03	2.52250e+03
125	1.07250e+03	2.52250e+03
126	1.08750e+03	2.52250e+03
127	1.04250e+03	2.53750e+03
128	1.05750e+03	2.53750e+03
129	1.07250e+03	2.53750e+03
130	1.08750e+03	2.53750e+03
131	1.04250e+03	2.55250e+03
132	1.05750e+03	2.55250e+03
133	1.07250e+03	2.55250e+03
134	1.08750e+03	2.55250e+03
135	1.04250e+03	2.56750e+03
136	1.05750e+03	2.56750e+03
137	1.07250e+03	2.56750e+03
138	1.08750e+03	2.56750e+03
139	1.04250e+03	2.58250e+03
140	1.05750e+03	2.58250e+03
141	1.07250e+03	2.58250e+03
142	1.08750e+03	2.58250e+03
143	1.04250e+03	2.59750e+03
144	1.05750e+03	2.59750e+03
145	1.07250e+03	2.59750e+03
146	1.08750e+03	2.59750e+03
147	1.04250e+03	2.61250e+03
148	1.05750e+03	2.61250e+03
149	1.07250e+03	2.61250e+03
150	1.08750e+03	2.61250e+03
151	1.04250e+03	2.62750e+03
152	1.05750e+03	2.62750e+03
153	1.07250e+03	2.62750e+03
154	1.08750e+03	2.62750e+03
155	1.04250e+03	2.64250e+03
156	1.05750e+03	2.64250e+03
157	1.07250e+03	2.64250e+03
158	1.08750e+03	2.64250e+03
159	1.04250e+03	2.65750e+03
160	1.05750e+03	2.65750e+03
161	1.07250e+03	2.65750e+03
162	1.08750e+03	2.65750e+03
163	1.04250e+03	2.67250e+03
164	1.05750e+03	2.67250e+03
165	1.07250e+03	2.67250e+03
166	1.08750e+03	2.67250e+03
167	1.04250e+03	2.68750e+03
168	1.05750e+03	2.68750e+03
169	1.07250e+03	2.68750e+03
170	1.08750e+03	2.68750e+03
171	1.04250e+03	2.70250e+03
172	1.05750e+03	2.70250e+03
173	1.07250e+03	2.70250e+03
174	1.08750e+03	2.70250e+03
175	1.04250e+03	2.71750e+03
176	1.05750e+03	2.71750e+03
177	1.07250e+03	2.71750e+03
178	1.08750e+03	2.71750e+03
179	1.04250e+03	2.73250e+03
180	1.05750e+03	2.73250e+03
181	1.07250e+03	2.73250e+03
182	1.08750e+03	2.73250e+03
183	1.04250e+03	2.74750e+03
184	1.05750e+03	2.74750e+03
185	1.07250e+03	2.74750e+03
186	1.08750e+03	2.74750e+03
187	1.04250e+03	2.76250e+03
188	1.05750e+03	2.76250e+03
189	1.07250e+03	2.76250e+03
190	1.08750e+03	2.76250e+03
191	1.04250e+03	2.77750e+03
192	1.05750e+03	2.77750e+03
193	1.07250e+03	2.77750e+03
194	1.08750e+03	2.77750e+03
195	1.04250e+03	2.79250e+03
196	1.05750e+03	2.79250e+03
197	1.07250e+03	2.79250e+03
198	1.08750e+03	2.79250e+03
199	1.04250e+03	2.80750e+03
200	1.05750e+03	2.80750e+03
201	1.07250e+03	2.80750e+03
202	1.08750e+03	2.80750e+03
203	1.04250e+03	4.95250e+03
204	1.05750e+03	4.95250e+03
205	1.07250e+03	4.95250e+03
206	1.08750e+03	4.95250e+03
207	1.04250e+03	4.96750e+03
208	1.05750e+03	4.96750e+03
209	1.07250e+03	4.96750e+03
210	1.08750e+03	4.96750e+03
211	1.04250e+03	4.98250e+03
212	1.05750e+03	4.98250e+03
213	1.07250e+03	4.98250e+03
214	1.08750e+03	4.98250e+03
215	1.04250e+03	4.99750e+03
216	1.05750e+03	4.99750e+03
217	1.07250e+03	4.99750e+03
218	1.08750e+03	4.99750e+03
219	1.04250e+03	5.01250e+03
220	1.05750e+03	5.01250e+03
221	1.07250e+03	5.01250e+03
222	1.08750e+03	5.01250e+03
223	1.04250e+03	5.02750e+03
224	1.05750e+03	5.02750e+03
225	1.07250e+03	5.02750e+03
226	1.08750e+03	5.02750e+03
227	1.04250e+03	5.04250e+03
228	1.05750e+03	5.04250e+03
229	1.07250e+03	5.04250e+03
230	1.08750e+03	5.04250e+03
231	1.04250e+03	5.05750e+03
232	1.05750e+03	5.05750e+03
233	1.07250e+03	5.05750e+03
234	1.08750e+03	5.05750e+03
235	1.04250e+03	5.07250e+03
236	1.05750e+03	5.07250e+03
237	1.07250e+03	5.07250e+03
238	1.08750e+03	5.07250e+03
239	1.04250e+03	5.08750e+03
240	1.05750e+03	5.08750e+03
241	1.07250e+03	5.08750e+03
242	1.08750e+03	5.08750e+03
243	1.04250e+03	5.10250e+03
244	1.05750e+03	5.10250e+03
245	1.07250e+03	5.10250e+03
246	1.08750e+03	5.10250e+03
247	1.04250e+03	5.11750e+03
248	1.05750e+03	5.11750e+03
249	1.07250e+03	5.11750e+03
250	1.08750e+03	5.11750e+03
251	1.04250e+03	5.13250e+03
252	1.05750e+03	5.13250e+03
253	1.07250e+03	5.13250e+03
254	1.08750e+03	5.13250e+03
255	1.04250e+03	5.14750e+03
256	1.05750e+03	5.14750e+03
257	1.07250e+03	5.14750e+03
258	1.08750e+03	5.14750e+03
259	1.04250e+03	5.16250e+03
260	1.05750e+03	5.16250e+03
261	1.07250e+03	5.16250e+03
262	1.08750e+03	5.16250e+03
263	1.04250e+03	5.17750e+03
264	1.05750e+03	5.17750e+03
265	1.07250e+03	5.17750e+03
266	1.08750e+03	5.17750e+03
267	1.04250e+03	5.19250e+03
268	1.05750e+03	5.19250e+03
269	1.07250e+03	5.19250e+03
270	1.08750e+03	5.19250e+03
271	1.04250e+03	5.20750e+03
272	1.05750e+03	5.20750e+03
273	1.07250e+03	5.20750e+03
274	1.08750e+03	5.20750e+03
275	1.04250e+03	5.22250e+03
276	1.05750e+03	5.22250e+03
277	1.07250e+03	5.22250e+03
278	1.08750e+03	5.22250e+03
279	1.04250e+03	5.23750e+03
280	1.05750e+03	5.23750e+03
281	1.07250e+03	5.23750e+03
282	1.08750e+03	5.23750e+03
283	1.04250e+03	5.25250e+03
284	1.05750e+03	5.25250e+03
285	1.07250e+03	5.25250e+03
286	1.08750e+03	5.25250e+03
287	1.04250e+03	5.26750e+03
288	1.05750e+03	5.26750e+03
289	1.07250e+03	5.26750e+03
290	1.08750e+03	5.26750e+03
291	1.04250e+03	5.28250e+03
292	1.05750e+03	5.28250e+03
293	1.07250e+03	5.28250e+03
294	1.08750e+03	5.28250e+03
295	1.04250e+03	5.29750e+03
296	1.05750e+03	5.29750e+03
297	1.07250e+03	5.29750e+03
298	1.08750e+03	5.29750e+03
299	5.81250e+03	2.46250e+03
300	5.82750e+03	2.46250e+03
301	5.84250e+03	2.46250e+03
302	5.85750e+03	2.46250e+03
303	5.81250e+03	2.47750e+03
304	5.82750e+03	2.47750e+03
305	5.84250e+03	2.47750e+03
306	5.85750e+03	2.47750e+03
307	5.81250e+03	2.49250e+03
308	5.82750e+03	2.49250e+03
309	5.84250e+03	2.49250e+03
310	5.85750e+03	2.49250e+03
311	5.81250e+03	2.50750e+03
312	5.82750e+03	2.50750e+03
313	5.84250e+03	2.50750e+03
314	5.85750e+03	2.50750e+03
315	5.81250e+03	2.52250e+03
316	5.82750e+03	2.52250e+03
317	5.84250e+03	2.52250e+03
318	5.85750e+03	2.52250e+03
319	5.81250e+03	2.53750e+03
320	5.82750e+03	2.53750e+03
321	5.84250e+03	2.53750e+03
322	5.85750e+03	2.53750e+03
323	5.81250e+03	2.55250e+03
324	5.82750e+03	2.55250e+03
325	5.84250e+03	2.55250e+03
326	5.85750e+03	2.55250e+03
327	5.81250e+03	2.56750e+03
328	5.82750e+03	2.56750e+03
329	5.84250e+03	2.56750e+03
330	5.85750e+03	2.56750e+03
331	5.81250e+03	2.58250e+03
332	5.82750e+03	2.58250e+03
333	5.84250e+03	2.58250e+03
334	5.85750e+03	2.58250e+03
335	5.81250e+03	2.59750e+03
336	5.82750e+03	2.59750e+03
337	5.84250e+03	2.59750e+03
338	5.85750e+03	2.59750e+03
339	5.81250e+03	2.61250e+03
340	5.82750e+03	2.61250e+03
341	5.84250e+03	2.61250e+03
342	5.85750e+03	2.61250e+03
343	5.81250e+03	2.62750e+03
344	5.82750e+03	2.62750e+03
345	5.84250e+03	2.62750e+03
346	5.85750e+03	2.62750e+03
347	5.81250e+03	2.64250e+03
348	5.82750e+03	2.64250e+03
349	5.84250e+03	2.64250e+03
350	5.85750e+03	2.64250e+03
351	5.81250e+03	2.65750e+03
352	5.82750e+03	2.65750e+03
353	5.84250e+03	2.65750e+03
354	5.85750e+03	2.65750e+03
355	5.81250e+03	2.67250e+03
356	5.82750e+03	2.67250e+03
357	5.84250e+03	2.67250e+03
358	5.85750e+03	2.67250e+03
359	5.81250e+03	2.68750e+03
360	5.82750e+03	2.68750e+03
361	5.84250e+03	2.68750e+03
362	5.85750e+03	2.68750e+03
363	5.81250e+03	2.70250e+03
364	5.82750e+03	2.70250e+03
365	5.84250e+03	2.70250e+03
366	5.85750e+03	2.70250e+03
367	5.81250e+03	2.71750e+03
368	5.82750e+03	2.71750e+03
369	5.84250e+03	2.71750e+03
370	5.85750e+03	2.71750e+03
371	5.81250e+03	2.73250e+03
372	5.82750e+03	2.73250e+03
373	5.84250e+03	2.73250e+03
374	5.85750e+03	2.73250e+03
375	5.81250e+03	2.74750e+03
376	5.82750e+03	2.74750e+03
377	5.84250e+03	2.74750e+03
378	5.85750e+03	2.74750e+03
379	5.81250e+03	2.76250e+03
380	5.82750e+03	2.76250e+03
381	5.84250e+03	2.76250e+03
382	5.85750e+03	2.76250e+03
383	5.81250e+03	2.77750e+03
384	5.82750e+03	2.77750e+03
385	5.84250e+03	2.77750e+03
386	5.85750e+03	2.77750e+03
387	5.81250e+03	2.79250e+03
388	5.82750e+03	2.79250e+03
389	5.84250e+03	2.79250e+03
390	5.85750e+03	2.79250e+03
391	5.81250e+03	2.80750e+03
392	5.82750e+03	2.80750e+03
393	5.84250e+03	2.80750e+03
394	5.85750e+03	2.80750e+03
395	5.81250e+03	4.95250e+03
396	5.82750e+03	4.95250e+03
397	5.84250e+03	4.95250e+03
398	5.85750e+03	4.95250e+03
399	5.81250e+03	4.96750e+03
400	5.82750e+03	4.96750e+03
401	5.84250e+03	4.96750e+03
402	5.85750e+03	4.96750e+03
403	5.81250e+03	4.98250e+03
404	5.82750e+03	4.98250e+03
405	5.84250e+03	4.98250e+03
406	5.85750e+03	4.98250e+03
407	5.81250e+03	4.99750e+03
408	5.82750e+03	4.99750e+03
409	5.84250e+03	4.99750e+03
410	5.85750e+03	4.99750e+03
411	5.81250e+03	5.01250e+03
412	5.82750e+03	5.01250e+03
413	5.84250e+03	5.01250e+03
414	5.85750e+03	5.01250e+03
415	5.81250e+03	5.02750e+03
416	5.82750e+03	5.02750e+03
417	5.84250e+03	5.02750e+03
418	5.85750e+03	5.02750e+03
419	5.81250e+03	5.04250e+03
420	5.82750e+03	5.04250e+03
421	5.84250e+03	5.04250e+03
422	5.85750e+03	5.04250e+03
423	5.81250e+03	5.05750e+03
424	5.82750e+03	5.05750e+03
425	5.84250e+03	5.05750e+03
426	5.85750e+03	5.05750e+03
427	5.81250e+03	5.07250e+03
428	5.82750e+03	5.07250e+03
429	5.84250e+03	5.07250e+03
430	5.85750e+03	5.07250e+03
431	5.81250e+03	5.08750e+03
432	5.82750e+03	5.08750e+03
433	5.84250e+03	5.08750e+03
434	5.85750e+03	5.08750e+03
435	5.81250e+03	5.10250e+03
436	5.82750e+03	5.10250e+03
437	5.84250e+03	5.10250e+03
438	5.85750e+03	5.10250e+03
439	5.81250e+03	5.11750e+03
440	5.82750e+03	5.11750e+03
441	5.84250e+03	5.11750e+03
442	5.85750e+03	5.11750e+03
443	5.81250e+03	5.13250e+03
444	5.82750e+03	5.13250e+03
445	5.84250e+03	5.13250e+03
446	5.85750e+03	5.13250e+03
447	5.81250e+03	5.14750e+03
448	5.82750e+03	5.14750e+03
449	5.84250e+03	5.14750e+03
450	5.85750e+03	5.14750e+03
451	5.81250e+03	5.16250e+03
452	5.82750e+03	5.16250e+03
453	5.84250e+03	5.16250e+03
454	5.85750e+03	5.16250e+03
455	5.81250e+03	5.17750e+03
456	5.82750e+03	5.17750e+03
457	5.84250e+03	5.17750e+03
458	5.85750e+03	5.17750e+03
459	5.81250e+03	5.19250e+03
460	5.82750e+03	5.19250e+03
461	5.84250e+03	5.19250e+03
462	5.85750e+03	5.19250e+03
463	5.81250e+03	5.20750e+03
464	5.82750e+03	5.20750e+03
465	5.84250e+03	5.20750e+03
466	5.85750e+03	5.20750e+03
467	5.81250e+03	5.22250e+03
468	5.82750e+03	5.22250e+03
469	5.84250e+03	5.22250e+03
470	5.85750e+03	5.22250e+03
471	5.81250e+03	5.23750e+03
472	5.82750e+03	5.23750e+03
473	5.84250e+03	5.23750e+03
474	5.85750e+03	5.23750e+03
475	5.81250e+03	5.25250e+03
476	5.82750e+03	5.25250e+03
477	5.84250e+03	5.25250e+03
478	5.85750e+03	5.25250e+03
479	5.81250e+03	5.26750e+03
480	5.82750e+03	5.26750e+03
481	5.84250e+03	5.26750e+03
482	5.85750e+03	5.26750e+03
483	5.81250e+03	5.28250e+03
484	5.82750e+03	5.28250e+03
485	5.84250e+03	5.28250e+03
486	5.85750e+03	5.28250e+03
487	5.81250e+03	5.29750e+03
488	5.82750e+03	5.29750e+03
489	5.84250e+03	5.29750e+03
490	5.85750e+03	5.29750e+03
491	1.04250e+03	1.80250e+03
492	1.04250e+03	1.81750e+03
493	1.04250e+03	1.83250e+03
494	1.04250e+03	1.87750e+03
495	1.04250e+03	1.89250e+03
496	1.04250e+03	1.92250e+03
497	1.04250e+03	1.95250e+03
498	1.04250e+03	1.99750e+03
499	1.04250e+03	2.07250e+03
500	1.04250e+03	2.11750e+03
501	1.04250e+03	2.16250e+03
502	1.04250e+03	2.22250e+03
503	1.04250e+03	2.25250e+03
504	1.04250e+03	2.35750e+03
505	1.04250e+03	2.40250e+03
506	1.04250e+03	4.29250e+03
507	1.04250e+03	4.30750e+03
508	1.04250e+03	4.32250e+03
509	1.04250e+03	4.36750e+03
510	1.04250e+03	4.38250e+03
511	1.04250e+03	4.41250e+03
512	1.04250e+03	4.44250e+03
513	1.04250e+03	4.48750e+03
514	1.04250e+03	4.56250e+03
515	1.04250e+03	4.60750e+03
516	1.04250e+03	4.65250e+03
517	1.04250e+03	4.71250e+03
518	1.04250e+03	4.74250e+03
519	1.04250e+03	4.84750e+03
520	1.04250e+03	4.89250e+03
521	1.05750e+03	1.84750e+03
522	1.05750e+03	1.95250e+03
523	1.05750e+03	2.02750e+03
524	1.05750e+03	2.08750e+03
525	1.05750e+03	2.14750e+03
526	1.05750e+03	2.28250e+03
527	1.05750e+03	4.33750e+03
528	1.05750e+03	4.44250e+03
529	1.05750e+03	4.51750e+03
530	1.05750e+03	4.57750e+03
531	1.05750e+03	4.63750e+03
532	1.05750e+03	4.77250e+03
533	1.07250e+03	1.81750e+03
534	1.07250e+03	1.83250e+03
535	1.07250e+03	1.89250e+03
536	1.07250e+03	1.96750e+03
537	1.07250e+03	2.16250e+03
538	1.07250e+03	2.22250e+03
539	1.07250e+03	2.28250e+03
540	1.07250e+03	2.35750e+03
541	1.07250e+03	4.30750e+03
542	1.07250e+03	4.32250e+03
543	1.07250e+03	4.38250e+03
544	1.07250e+03	4.45750e+03
545	1.07250e+03	4.65250e+03
546	1.07250e+03	4.71250e+03
547	1.07250e+03	4.77250e+03
548	1.07250e+03	4.84750e+03
549	1.08750e+03	1.78750e+03
550	1.08750e+03	1.84750e+03
551	1.08750e+03	1.87750e+03
552	1.08750e+03	1.96750e+03
553	1.08750e+03	1.99750e+03
554	1.08750e+03	2.02750e+03
555	1.08750e+03	2.08750e+03
556	1.08750e+03	2.11750e+03
557	1.08750e+03	2.14750e+03
558	1.08750e+03	2.19250e+03
559	1.08750e+03	2.25250e+03
560	1.08750e+03	2.40250e+03
561	1.08750e+03	4.27750e+03
562	1.08750e+03	4.33750e+03
563	1.08750e+03	4.36750e+03
564	1.08750e+03	4.45750e+03
565	1.08750e+03	4.48750e+03
566	1.08750e+03	4.51750e+03
567	1.08750e+03	4.57750e+03
568	1.08750e+03	4.60750e+03
569	1.08750e+03	4.63750e+03
570	1.08750e+03	4.68250e+03
571	1.08750e+03	4.74250e+03
572	1.08750e+03	4.89250e+03
573	5.81250e+03	1.80250e+03
574	5.81250e+03	1.81750e+03
575	5.81250e+03	1.83250e+03
576	5.81250e+03	1.87750e+03
577	5.81250e+03	1.89250e+03
578	5.81250e+03	1.92250e+03
579	5.81250e+03	1.95250e+03
580	5.81250e+03	1.99750e+03
581	5.81250e+03	2.07250e+03
582	5.81250e+03	2.11750e+03
583	5.81250e+03	2.16250e+03
584	5.81250e+03	2.22250e+03
585	5.81250e+03	2.25250e+03
586	5.81250e+03	2.35750e+03
587	5.81250e+03	2.40250e+03
588	5.81250e+03	4.29250e+03
589	5.81250e+03	4.30750e+03
590	5.81250e+03	4.32250e+03
591	5.81250e+03	4.36750e+03
592	5.81250e+03	4.38250e+03
593	5.81250e+03	4.41250e+03
594	5.81250e+03	4.44250e+03
595	5.81250e+03	4.48750e+03
596	5.81250e+03	4.56250e+03
597	5.81250e+03	4.60750e+03
598	5.81250e+03	4.65250e+03
599	5.81250e+03	4.71250e+03
600	5.81250e+03	4.74250e+03
601	5.81250e+03	4.84750e+03
602	5.81250e+03	4.89250e+03
603	5.82750e+03	1.84750e+03
604	5.82750e+03	1.95250e+03
605	5.82750e+03	2.02750e+03
606	5.82750e+03	2.08750e+03
607	5.82750e+03	2.14750e+03
608	5.82750e+03	2.28250e+03
609	5.82750e+03	4.33750e+03
610	5.82750e+03	4.44250e+03
611	5.82750e+03	4.51750e+03
612	5.82750e+03	4.57750e+03
613	5.82750e+03	4.63750e+03
614	5.82750e+03	4.77250e+03
615	5.84250e+03	1.81750e+03
616	5.84250e+03	1.83250e+03
617	5.84250e+03	1.89250e+03
618	5.84250e+03	1.96750e+03
619	5.84250e+03	2.16250e+03
620	5.84250e+03	2.22250e+03
621	5.84250e+03	2.28250e+03
622	5.84250e+03	2.35750e+03
623	5.84250e+03	4.30750e+03
624	5.84250e+03	4.32250e+03
625	5.84250e+03	4.38250e+03
626	5.84250e+03	4.45750e+03
627	5.84250e+03	4.65250e+03
628	5.84250e+03	4.71250e+03
629	5.84250e+03	4.77250e+03
630	5.84250e+03	4.84750e+03
631	5.85750e+03	1.78750e+03
632	5.85750e+03	1.84750e+03
633	5.85750e+03	1.87750e+03
634	5.85750e+03	1.96750e+03
635	5.85750e+03	1.99750e+03
636	5.85750e+03	2.02750e+03
637	5.85750e+03	2.08750e+03
638	5.85750e+03	2.11750e+03
639	5.85750e+03	2.14750e+03
640	5.85750e+03	2.19250e+03
641	5.85750e+03	2.25250e+03
642	5.85750e+03	2.40250e+03
643	5.85750e+03	4.27750e+03
644	5.85750e+03	4.33750e+03
645	5.85750e+03	4.36750e+03
646	5.85750e+03	4.45750e+03
647	5.85750e+03	4.48750e+03
648	5.85750e+03	4.51750e+03
649	5.85750e+03	4.57750e+03
650	5.85750e+03	4.60750e+03
651	5.85750e+03	4.63750e+03
652	5.85750e+03	4.68250e+03
653	5.85750e+03	4.74250e+03
654	5.85750e+03	4.89250e+03
ITEMS SECTION	(INDEX, PROFIT, WEIGHT, ASSIGNED NODE NUMBER): 
1	101	1	2
2	202	2	3
3	404	4	4
4	202	2	5
5	996	896	6
6	1992	1792	7
7	3984	3584	8
8	467	367	9
9	934	734	10
10	1868	1468	11
11	790	690	12
12	790	690	13
13	713	613	14
14	1426	1226	15
15	2852	2452	16
16	974	874	17
17	974	874	18
18	222	122	19
19	444	244	20
20	888	488	21
21	666	366	22
22	586	486	23
23	1172	972	24
24	1172	972	25
25	923	823	26
26	923	823	27
27	563	463	28
28	1126	926	29
29	563	463	30
30	689	589	31
31	1378	1178	32
32	1378	1178	33
33	425	325	34
34	850	650	35
35	1700	1300	36
36	1275	975	37
37	1100	1000	38
38	2200	2000	39
39	4400	4000	40
40	876	776	41
41	1752	1552	42
42	2628	2328	43
43	223	123	44
44	456	356	45
45	405	305	46
46	810	610	47
47	1620	1220	48
48	405	305	49
49	147	47	50
50	294	94	51
51	588	188	52
52	745	645	53
53	1490	1290	54
54	2980	2580	55
55	1490	1290	56
56	239	139	57
57	347	247	58
58	694	494	59
59	1388	988	60
60	1041	741	61
61	311	211	62
62	622	422	63
63	1244	844	64
64	933	633	65
65	200	100	66
66	400	200	67
67	800	400	68
68	200	100	69
69	727	627	70
70	1454	1254	71
71	1454	1254	72
72	860	760	73
73	1720	1520	74
74	876	776	75
75	1752	1552	76
76	3504	3104	77
77	575	475	78
78	1150	950	79
79	2300	1900	80
80	1037	937	81
81	2074	1874	82
82	4148	3748	83
83	1037	937	84
84	201	101	85
85	402	202	86
86	804	404	87
87	402	202	88
88	381	281	89
89	762	562	90
90	1524	1124	91
91	762	562	92
92	851	751	93
93	1702	1502	94
94	3404	3004	95
95	1702	1502	96
96	630	530	97
97	1260	1060	98
98	2520	2120	99
99	340	240	100
100	680	480	101
101	680	480	102
102	348	248	103
103	696	496	104
104	1044	744	105
105	868	768	106
106	131	31	107
107	262	62	108
108	131	31	109
109	713	613	110
110	1426	1226	111
111	2852	2452	112
112	713	613	113
113	981	881	114
114	1962	1762	115
115	1962	1762	116
116	467	367	117
117	934	734	118
118	1868	1468	119
119	467	367	120
120	812	712	121
121	510	410	122
122	1020	820	123
123	2040	1640	124
124	510	410	125
125	257	157	126
126	514	314	127
127	1028	628	128
128	771	471	129
129	924	824	130
130	342	242	131
131	572	472	132
132	1144	944	133
133	1716	1416	134
134	822	722	135
135	1644	1444	136
136	3288	2888	137
137	875	775	138
138	875	775	139
139	471	371	140
140	942	742	141
141	1884	1484	142
142	437	337	143
143	874	674	144
144	437	337	145
145	985	885	146
146	1970	1770	147
147	3940	3540	148
148	1970	1770	149
149	304	204	150
150	608	408	151
151	1216	816	152
152	608	408	153
153	694	594	154
154	1388	1188	155
155	2776	2376	156
156	1388	1188	157
157	326	226	158
158	652	452	159
159	1304	904	160
160	326	226	161
161	652	452	162
162	1021	921	163
163	637	537	164
164	1274	1074	165
165	2548	2148	166
166	212	112	167
167	212	112	168
168	1059	959	169
169	2118	1918	170
170	3177	2877	171
171	492	392	172
172	492	392	173
173	809	709	174
174	1618	1418	175
175	3236	2836	176
176	1040	940	177
177	2080	1880	178
178	1043	943	179
179	2086	1886	180
180	4172	3772	181
181	179	79	182
182	179	79	183
183	1022	922	184
184	2044	1844	185
185	2044	1844	186
186	461	361	187
187	1047	947	188
188	2094	1894	189
189	1047	947	190
190	961	861	191
191	1922	1722	192
192	3844	3444	193
193	2883	2583	194
194	1037	937	195
195	2074	1874	196
196	4148	3748	197
197	3111	2811	198
198	854	754	199
199	1708	1508	200
200	2562	2262	201
201	972	872	202
202	736	636	203
203	736	636	204
204	559	459	205
205	1118	918	206
206	2236	1836	207
207	1677	1377	208
208	490	390	209
209	490	390	210
210	241	141	211
211	482	282	212
212	723	423	213
213	211	111	214
214	422	222	215
215	844	444	216
216	633	333	217
217	688	588	218
218	1376	1176	219
219	688	588	220
220	106	6	221
221	106	6	222
222	255	155	223
223	510	310	224
224	1020	620	225
225	765	465	226
226	823	723	227
227	1646	1446	228
228	3292	2892	229
229	1646	1446	230
230	823	723	231
231	1646	1446	232
232	3292	2892	233
233	2469	2169	234
234	767	667	235
235	1534	1334	236
236	1534	1334	237
237	929	829	238
238	1858	1658	239
239	3716	3316	240
240	929	829	241
241	587	487	242
242	1174	974	243
243	1174	974	244
244	690	590	245
245	1380	1180	246
246	2760	2360	247
247	1380	1180	248
248	470	370	249
249	940	740	250
250	1880	1480	251
251	923	823	252
252	1846	1646	253
253	3692	3292	254
254	923	823	255
255	273	173	256
256	546	346	257
257	156	56	258
258	1077	977	259
259	2154	1954	260
260	3231	2931	261
261	781	681	262
262	1562	1362	263
263	2343	2043	264
264	789	689	265
265	1578	1378	266
266	3156	2756	267
267	789	689	268
268	1033	933	269
269	2066	1866	270
270	3099	2799	271
271	909	809	272
272	1818	1618	273
273	687	587	274
274	1374	1174	275
275	786	686	276
276	1572	1372	277
277	786	686	278
278	566	466	279
279	456	356	280
280	912	712	281
281	912	712	282
282	884	784	283
283	884	784	284
284	962	862	285
285	1924	1724	286
286	3848	3448	287
287	2886	2586	288
288	323	223	289
289	646	446	290
290	1292	892	291
291	969	669	292
292	641	541	293
293	1282	1082	294
294	2564	2164	295
295	161	61	296
296	322	122	297
297	516	416	298
298	516	416	299
299	162	62	300
300	162	62	301
301	305	205	302
302	610	410	303
303	252	152	304
304	504	304	305
305	1008	608	306
306	504	304	307
307	1013	913	308
308	2026	1826	309
309	4052	3652	310
310	3039	2739	311
311	367	267	312
312	734	534	313
313	1468	1068	314
314	349	249	315
315	698	498	316
316	349	249	317
317	287	187	318
318	574	374	319
319	1148	748	320
320	861	561	321
321	274	174	322
322	548	348	323
323	274	174	324
324	1039	939	325
325	1039	939	326
326	619	519	327
327	1238	1038	328
328	1238	1038	329
329	156	56	330
330	312	112	331
331	624	224	332
332	312	112	333
333	481	381	334
334	962	762	335
335	1924	1524	336
336	962	762	337
337	651	551	338
338	1302	1102	339
339	1302	1102	340
340	228	128	341
341	456	256	342
342	912	512	343
343	912	812	344
344	1824	1624	345
345	3648	3248	346
346	2736	2436	347
347	853	753	348
348	1706	1506	349
349	3412	3012	350
350	1706	1506	351
351	644	544	352
352	1288	1088	353
353	644	544	354
354	784	684	355
355	1568	1368	356
356	2352	2052	357
357	930	830	358
358	1860	1660	359
359	1860	1660	360
360	825	725	361
361	1650	1450	362
362	3300	2900	363
363	2475	2175	364
364	430	330	365
365	860	660	366
366	430	330	367
367	215	115	368
368	138	38	369
369	276	76	370
370	545	445	371
371	1090	890	372
372	1635	1335	373
373	719	619	374
374	1438	1238	375
375	2876	2476	376
376	2157	1857	377
377	748	648	378
378	996	896	379
379	1992	1792	380
380	2988	2688	381
381	758	658	382
382	1516	1316	383
383	3032	2632	384
384	406	306	385
385	812	612	386
386	1218	918	387
387	906	806	388
388	1812	1612	389
389	3624	3224	390
390	1812	1612	391
391	900	800	392
392	1800	1600	393
393	712	612	394
394	1424	1224	395
395	454	354	396
396	400	300	397
397	800	600	398
398	1600	1200	399
399	800	600	400
400	274	174	401
401	548	348	402
402	1096	696	403
403	548	348	404
404	851	751	405
405	1702	1502	406
406	226	126	407
407	226	126	408
408	703	603	409
409	703	603	410
410	765	665	411
411	309	209	412
412	618	418	413
413	1236	836	414
414	408	308	415
415	408	308	416
416	816	616	417
417	1632	1232	418
418	1224	924	419
419	777	677	420
420	1554	1354	421
421	3108	2708	422
422	2331	2031	423
423	963	863	424
424	1926	1726	425
425	2889	2589	426
426	392	292	427
427	392	292	428
428	544	444	429
429	1088	888	430
430	2176	1776	431
431	544	444	432
432	395	295	433
433	513	413	434
434	172	72	435
435	344	144	436
436	688	288	437
437	172	72	438
438	421	321	439
439	842	642	440
440	421	321	441
441	1081	981	442
442	2162	1962	443
443	1081	981	444
444	897	797	445
445	1794	1594	446
446	1794	1594	447
447	607	507	448
448	1214	1014	449
449	2428	2028	450
450	1214	1014	451
451	815	715	452
452	815	715	453
453	612	512	454
454	1224	1024	455
455	2448	2048	456
456	612	512	457
457	992	892	458
458	1984	1784	459
459	1984	1784	460
460	176	76	461
461	352	152	462
462	352	152	463
463	122	22	464
464	244	44	465
465	488	88	466
466	244	44	467
467	743	643	468
468	1486	1286	469
469	743	643	470
470	966	866	471
471	1932	1732	472
472	1932	1732	473
473	174	74	474
474	348	148	475
475	348	148	476
476	608	508	477
477	1216	1016	478
478	1824	1524	479
479	343	243	480
480	876	776	481
481	1752	1552	482
482	3504	3104	483
483	426	326	484
484	852	652	485
485	1704	1304	486
486	852	652	487
487	794	694	488
488	1588	1388	489
489	2382	2082	490
490	762	662	491
491	1524	1324	492
492	3048	2648	493
493	1524	1324	494
494	117	17	495
495	234	34	496
496	468	68	497
497	234	34	498
498	754	654	499
499	1508	1308	500
500	3016	2616	501
501	754	654	502
502	229	129	503
503	458	258	504
504	916	516	505
505	762	662	506
506	223	123	507
507	446	246	508
508	892	492	509
509	223	123	510
510	282	182	511
511	564	364	512
512	1128	728	513
513	564	364	514
514	654	554	515
515	1308	1108	516
516	521	421	517
517	1042	842	518
518	785	685	519
519	1570	1370	520
520	3140	2740	521
521	2355	2055	522
522	570	470	523
523	1140	940	524
524	2280	1880	525
525	1710	1410	526
526	177	77	527
527	354	154	528
528	708	308	529
529	364	264	530
530	364	264	531
531	724	624	532
532	1448	1248	533
533	2896	2496	534
534	1061	961	535
535	2122	1922	536
536	2122	1922	537
537	155	55	538
538	155	55	539
539	354	254	540
540	354	254	541
541	980	880	542
542	1960	1760	543
543	3920	3520	544
544	2940	2640	545
545	1021	921	546
546	2042	1842	547
547	4084	3684	548
548	3063	2763	549
549	909	809	550
550	1818	1618	551
551	3636	3236	552
552	2727	2427	553
553	780	680	554
554	1560	1360	555
555	3120	2720	556
556	780	680	557
557	654	554	558
558	1308	1108	559
559	2616	2216	560
560	1308	1108	561
561	162	62	562
562	324	124	563
563	648	248	564
564	673	573	565
565	673	573	566
566	668	568	567
567	1336	1136	568
568	668	568	569
569	137	37	570
570	274	74	571
571	274	74	572
572	1010	910	573
573	2020	1820	574
574	732	632	575
575	1464	1264	576
576	2928	2528	577
577	732	632	578
578	311	211	579
579	167	67	580
580	334	134	581
581	501	201	582
582	863	763	583
583	1726	1526	584
584	863	763	585
585	668	568	586
586	1336	1136	587
587	2672	2272	588
588	668	568	589
589	781	681	590
590	781	681	591
591	914	814	592
592	1828	1628	593
593	3656	3256	594
594	914	814	595
595	614	514	596
596	1228	1028	597
597	2456	2056	598
598	426	326	599
599	426	326	600
600	141	41	601
601	282	82	602
602	564	164	603
603	141	41	604
604	1009	909	605
605	1009	909	606
606	292	192	607
607	584	384	608
608	876	576	609
609	159	59	610
610	159	59	611
611	452	352	612
612	452	352	613
613	778	678	614
614	1556	1356	615
615	3112	2712	616
616	985	885	617
617	1970	1770	618
618	3940	3540	619
619	696	596	620
620	1392	1192	621
621	2784	2384	622
622	696	596	623
623	500	400	624
624	500	400	625
625	511	411	626
626	1022	822	627
627	511	411	628
628	846	746	629
629	1692	1492	630
630	2538	2238	631
631	635	535	632
632	1270	1070	633
633	2540	2140	634
634	182	82	635
635	364	164	636
636	728	328	637
637	546	246	638
638	499	399	639
639	998	798	640
640	1996	1596	641
641	998	798	642
642	512	412	643
643	1024	824	644
644	2048	1648	645
645	1536	1236	646
646	736	636	647
647	1472	1272	648
648	1083	983	649
649	2166	1966	650
650	2166	1966	651
651	460	360	652
652	220	120	653
653	440	240	654
